s td 25 26 50
b 1 1 2 3 5 6 8 11 13 14 15 16 18 22 23 24 25 29 32 37 40 41 44 45 46 48 50
b 2 1 3 5 6 8 10 11 13 18 22 24 25 29 32 37 40 41 44 45 46 48 50
b 3 1 3 6 8 10 11 13 20 24 37 40 44 48
b 4 1 3 4 11 20 37 40 48
b 5 3 7 10 22 25 32 41 46
b 6 1 2 5 6 8 11 13 14 15 16 18 22 23 24 25 29 32 37 40 41 43 44 45 46 48 50
b 7 1 2 5 8 13 14 16 18 22 23 24 25 26 32 37 40 41 43 44 45 48 50
b 8 1 2 5 9 13 16 18 22 23 24 25 26 32 37 40 43 44 50
b 9 9 17 18 23 24 25 26 40
b 10 1 5 9 16 27 32 43 44
b 11 1 2 5 6 8 11 12 13 14 15 16 18 22 23 24 25 29 32 37 40 41 44 45 46 48 50
b 12 1 2 5 6 8 11 12 13 14 16 18 22 23 25 29 37 38 40 41 44 45 46
b 13 1 2 5 6 12 13 14 19 25 38 40 45 46
b 14 1 2 6 12 19 25 45 47
b 15 12 23 29 31 37 38 41 44
b 16 1 2 5 6 8 11 13 14 15 16 18 22 23 24 25 28 29 32 37 40 41 44 45 46 48 50
b 17 1 6 8 13 14 15 16 18 22 23 25 28 29 32 37 40 42 44 45 46 48 50
b 18 1 6 8 13 14 16 18 23 25 28 29 32 33 37 42 46 48 50
b 19 1 8 13 16 21 23 25 29 33 42 46 48 50
b 20 1 8 21 23 39 42 46 50
b 21 1 2 5 6 8 11 13 14 15 16 18 22 23 24 25 29 30 32 37 40 41 44 45 46 48 50
b 22 2 5 6 8 11 13 15 16 18 23 25 30 32 36 37 40 41 44 45 46 48 50
b 23 2 6 11 13 16 18 23 30 32 35 36 40 41 44 45 46 48 50
b 24 6 16 34 35 36 40 41 50
b 25 11 13 23 30 32 35 45 49
1 2
1 6
1 11
1 16
1 21
2 3
2 5
3 4
6 7
7 8
8 9
8 10
11 12
12 13
12 15
13 14
16 17
17 18
18 19
19 20
21 22
22 23
23 24
23 25
